dates = {'2022-02-22','2022-02-23','2022-02-24','2022-02-25','2022-02-26','2022-02-27','2022-02-28','2022-03-01','2022-03-02','2022-03-03','2022-03-04','2022-03-05','2022-03-06','2022-03-07','2022-03-08','2022-03-09','2022-03-10','2022-03-11','2022-03-12','2022-03-13'};

1daysOfWeek = [Tuesday,Wednesday,Thursday,Friday,Saturday,Sunday,Monday,Tuesday,Wednesday,Thursday,Friday,Saturday,Sunday,Monday,Tuesday,Wednesday,Thursday,Friday,Saturday,Sunday];

% For this week, how many people will be here.
numPeople = [157,157,148,162,148,148,135,139,136,125,125,125,125,117,122,121,109,109
,109,109];

% Physical workers need 50 to 100 % more nutrients per day.
numPhysicalWorkers = [47.0,47.0,47.0,46.0,46.0,46.0,46.0,42.0,42.0,39.0,33.5,33.5,33.5,33.5
,32.0,32.0,31.0,28.0,28.0,28.0];

% Males need +25% more nutrients per day.
numMen = [129,135,129,135,135,121,121,112,112,109,100,100,100,100,100,100,99,90
,90,90];

% Num people who do not eat categories. contains = {none, meat, milk, gluten, egg, nut, seed, sugars}
numRefusals = [| 0,0,0,0,0,7,0,2 | 0,0,0,0,0,7,0,2 | 0,0,0,8,0,0,0,0 | 0,6,0,2,0,0,0,3 | 0,0,2,0,8,5,4,0 | 0,0,2,0,8,5,4,0 | 0,7,0,11,0,8,9,0 | 0,0,0,0,0,4,0,22 | 0,6,0,0,0,0,0,2 | 0,7,1,0,3,0,0,5 | 0,7,1,0,3,0,0,5 | 0,7,1,0,3,0,0,5 | 0,7,1,0,3,0,0,5 | 0,2,0,6,0,2,11,1 | 0,7,0,5,3,5,3,0 | 0,0,0,1,0,0,1,6 | 0,0,5,7,2,0,9,3 | 0,0,5,7,2,0,9,3 | 0,0,5,7,2,0,9,3 | 0,0,5,7,2,0,9,3 |];

